c Instancia Slitherlink 3x3
p cnf 24 85
1 0
4 0
13 0
14 0
-2 0
-5 0
-14 0
-15 0
-13 1 0
13 -1 0
-14 1 2 0
14 -1 2 0
14 1 -2 0
-14 -1 -2 0
-15 2 3 0
15 -2 3 0
15 2 -3 0
-15 -2 -3 0
-16 3 0
16 -3 0
-13 17 4 0
13 -17 4 0
13 17 -4 0
-13 -17 -4 0
-14 18 4 5 0
14 -18 4 5 0
14 18 -4 5 0
14 18 4 -5 0
-14 -18 -4 5 0
-14 -18 4 -5 0
-14 18 -4 -5 0
14 -18 -4 -5 0
-14 -18 -4 -5 0
-15 19 5 6 0
15 -19 5 6 0
15 19 -5 6 0
15 19 5 -6 0
-15 -19 -5 6 0
-15 -19 5 -6 0
-15 19 -5 -6 0
15 -19 -5 -6 0
-15 -19 -5 -6 0
-16 20 6 0
16 -20 6 0
16 20 -6 0
-16 -20 -6 0
-17 21 7 0
17 -21 7 0
17 21 -7 0
-17 -21 -7 0
-18 22 7 8 0
18 -22 7 8 0
18 22 -7 8 0
18 22 7 -8 0
-18 -22 -7 8 0
-18 -22 7 -8 0
-18 22 -7 -8 0
18 -22 -7 -8 0
-18 -22 -7 -8 0
-19 23 8 9 0
19 -23 8 9 0
19 23 -8 9 0
19 23 8 -9 0
-19 -23 -8 9 0
-19 -23 8 -9 0
-19 23 -8 -9 0
19 -23 -8 -9 0
-19 -23 -8 -9 0
-20 24 9 0
20 -24 9 0
20 24 -9 0
-20 -24 -9 0
-21 10 0
21 -10 0
-22 10 11 0
22 -10 11 0
22 10 -11 0
-22 -10 -11 0
-23 11 12 0
23 -11 12 0
23 11 -12 0
-23 -11 -12 0
-24 12 0
24 -12 0
1 2 3 4 5 6 7 8 9 10 11 12 13 14 15 16 17 18 19 20 21 22 23 24 0
