c Instancia Slitherlink 6x6
p cnf 84 537
1 7 0
1 43 0
1 44 0
7 43 0
7 44 0
43 44 0
-1 -7 -43 -44 0
2 8 0
2 44 0
2 45 0
8 44 0
8 45 0
44 45 0
-2 -8 -44 -45 0
-3 0
-9 0
-45 0
-46 0
4 10 0
4 46 0
4 47 0
10 46 0
10 47 0
46 47 0
-4 -10 -46 -47 0
5 11 47 0
5 11 48 0
5 47 48 0
11 47 48 0
-5 -11 -47 0
-5 -11 -48 0
-5 -47 -48 0
-11 -47 -48 0
-6 0
-12 0
-48 0
-49 0
-7 0
-13 0
-50 0
-51 0
8 14 51 0
8 14 52 0
8 51 52 0
14 51 52 0
-8 -14 -51 0
-8 -14 -52 0
-8 -51 -52 0
-14 -51 -52 0
9 15 0
9 52 0
9 53 0
15 52 0
15 53 0
52 53 0
-9 -15 -52 -53 0
-10 0
-16 0
-53 0
-54 0
11 17 54 0
11 17 55 0
11 54 55 0
17 54 55 0
-11 -17 -54 0
-11 -17 -55 0
-11 -54 -55 0
-17 -54 -55 0
12 18 55 0
12 18 56 0
12 55 56 0
18 55 56 0
-12 -18 -55 0
-12 -18 -56 0
-12 -55 -56 0
-18 -55 -56 0
13 0
19 0
57 0
58 0
14 20 0
14 58 0
14 59 0
20 58 0
20 59 0
58 59 0
-14 -20 -58 -59 0
-15 0
-21 0
-59 0
-60 0
16 22 60 0
16 22 61 0
16 60 61 0
22 60 61 0
-16 -22 -60 0
-16 -22 -61 0
-16 -60 -61 0
-22 -60 -61 0
17 23 0
17 61 0
17 62 0
23 61 0
23 62 0
61 62 0
-17 -23 -61 -62 0
18 24 0
18 62 0
18 63 0
24 62 0
24 63 0
62 63 0
-18 -24 -62 -63 0
19 25 0
19 64 0
19 65 0
25 64 0
25 65 0
64 65 0
-19 -25 -64 -65 0
-20 0
-26 0
-65 0
-66 0
21 27 66 0
21 27 67 0
21 66 67 0
27 66 67 0
-21 -27 -66 0
-21 -27 -67 0
-21 -66 -67 0
-27 -66 -67 0
22 28 0
22 67 0
22 68 0
28 67 0
28 68 0
67 68 0
-22 -28 -67 -68 0
-23 0
-29 0
-68 0
-69 0
24 0
30 0
69 0
70 0
25 31 71 0
25 31 72 0
25 71 72 0
31 71 72 0
-25 -31 -71 0
-25 -31 -72 0
-25 -71 -72 0
-31 -71 -72 0
26 32 72 0
26 32 73 0
26 72 73 0
32 72 73 0
-26 -32 -72 0
-26 -32 -73 0
-26 -72 -73 0
-32 -72 -73 0
-27 0
-33 0
-73 0
-74 0
28 34 0
28 74 0
28 75 0
34 74 0
34 75 0
74 75 0
-28 -34 -74 -75 0
29 35 75 0
29 35 76 0
29 75 76 0
35 75 76 0
-29 -35 -75 0
-29 -35 -76 0
-29 -75 -76 0
-35 -75 -76 0
-30 0
-36 0
-76 0
-77 0
-31 0
-37 0
-78 0
-79 0
32 38 79 0
32 38 80 0
32 79 80 0
38 79 80 0
-32 -38 -79 0
-32 -38 -80 0
-32 -79 -80 0
-38 -79 -80 0
33 39 0
33 80 0
33 81 0
39 80 0
39 81 0
80 81 0
-33 -39 -80 -81 0
-34 0
-40 0
-81 0
-82 0
35 41 0
35 82 0
35 83 0
41 82 0
41 83 0
82 83 0
-35 -41 -82 -83 0
36 42 0
36 83 0
36 84 0
42 83 0
42 84 0
83 84 0
-36 -42 -83 -84 0
-43 1 0
43 -1 0
-44 1 2 0
44 -1 2 0
44 1 -2 0
-44 -1 -2 0
-45 2 3 0
45 -2 3 0
45 2 -3 0
-45 -2 -3 0
-46 3 4 0
46 -3 4 0
46 3 -4 0
-46 -3 -4 0
-47 4 5 0
47 -4 5 0
47 4 -5 0
-47 -4 -5 0
-48 5 6 0
48 -5 6 0
48 5 -6 0
-48 -5 -6 0
-49 6 0
49 -6 0
-43 50 7 0
43 -50 7 0
43 50 -7 0
-43 -50 -7 0
-44 51 7 8 0
44 -51 7 8 0
44 51 -7 8 0
44 51 7 -8 0
-44 -51 -7 8 0
-44 -51 7 -8 0
-44 51 -7 -8 0
44 -51 -7 -8 0
-44 -51 -7 -8 0
-45 52 8 9 0
45 -52 8 9 0
45 52 -8 9 0
45 52 8 -9 0
-45 -52 -8 9 0
-45 -52 8 -9 0
-45 52 -8 -9 0
45 -52 -8 -9 0
-45 -52 -8 -9 0
-46 53 9 10 0
46 -53 9 10 0
46 53 -9 10 0
46 53 9 -10 0
-46 -53 -9 10 0
-46 -53 9 -10 0
-46 53 -9 -10 0
46 -53 -9 -10 0
-46 -53 -9 -10 0
-47 54 10 11 0
47 -54 10 11 0
47 54 -10 11 0
47 54 10 -11 0
-47 -54 -10 11 0
-47 -54 10 -11 0
-47 54 -10 -11 0
47 -54 -10 -11 0
-47 -54 -10 -11 0
-48 55 11 12 0
48 -55 11 12 0
48 55 -11 12 0
48 55 11 -12 0
-48 -55 -11 12 0
-48 -55 11 -12 0
-48 55 -11 -12 0
48 -55 -11 -12 0
-48 -55 -11 -12 0
-49 56 12 0
49 -56 12 0
49 56 -12 0
-49 -56 -12 0
-50 57 13 0
50 -57 13 0
50 57 -13 0
-50 -57 -13 0
-51 58 13 14 0
51 -58 13 14 0
51 58 -13 14 0
51 58 13 -14 0
-51 -58 -13 14 0
-51 -58 13 -14 0
-51 58 -13 -14 0
51 -58 -13 -14 0
-51 -58 -13 -14 0
-52 59 14 15 0
52 -59 14 15 0
52 59 -14 15 0
52 59 14 -15 0
-52 -59 -14 15 0
-52 -59 14 -15 0
-52 59 -14 -15 0
52 -59 -14 -15 0
-52 -59 -14 -15 0
-53 60 15 16 0
53 -60 15 16 0
53 60 -15 16 0
53 60 15 -16 0
-53 -60 -15 16 0
-53 -60 15 -16 0
-53 60 -15 -16 0
53 -60 -15 -16 0
-53 -60 -15 -16 0
-54 61 16 17 0
54 -61 16 17 0
54 61 -16 17 0
54 61 16 -17 0
-54 -61 -16 17 0
-54 -61 16 -17 0
-54 61 -16 -17 0
54 -61 -16 -17 0
-54 -61 -16 -17 0
-55 62 17 18 0
55 -62 17 18 0
55 62 -17 18 0
55 62 17 -18 0
-55 -62 -17 18 0
-55 -62 17 -18 0
-55 62 -17 -18 0
55 -62 -17 -18 0
-55 -62 -17 -18 0
-56 63 18 0
56 -63 18 0
56 63 -18 0
-56 -63 -18 0
-57 64 19 0
57 -64 19 0
57 64 -19 0
-57 -64 -19 0
-58 65 19 20 0
58 -65 19 20 0
58 65 -19 20 0
58 65 19 -20 0
-58 -65 -19 20 0
-58 -65 19 -20 0
-58 65 -19 -20 0
58 -65 -19 -20 0
-58 -65 -19 -20 0
-59 66 20 21 0
59 -66 20 21 0
59 66 -20 21 0
59 66 20 -21 0
-59 -66 -20 21 0
-59 -66 20 -21 0
-59 66 -20 -21 0
59 -66 -20 -21 0
-59 -66 -20 -21 0
-60 67 21 22 0
60 -67 21 22 0
60 67 -21 22 0
60 67 21 -22 0
-60 -67 -21 22 0
-60 -67 21 -22 0
-60 67 -21 -22 0
60 -67 -21 -22 0
-60 -67 -21 -22 0
-61 68 22 23 0
61 -68 22 23 0
61 68 -22 23 0
61 68 22 -23 0
-61 -68 -22 23 0
-61 -68 22 -23 0
-61 68 -22 -23 0
61 -68 -22 -23 0
-61 -68 -22 -23 0
-62 69 23 24 0
62 -69 23 24 0
62 69 -23 24 0
62 69 23 -24 0
-62 -69 -23 24 0
-62 -69 23 -24 0
-62 69 -23 -24 0
62 -69 -23 -24 0
-62 -69 -23 -24 0
-63 70 24 0
63 -70 24 0
63 70 -24 0
-63 -70 -24 0
-64 71 25 0
64 -71 25 0
64 71 -25 0
-64 -71 -25 0
-65 72 25 26 0
65 -72 25 26 0
65 72 -25 26 0
65 72 25 -26 0
-65 -72 -25 26 0
-65 -72 25 -26 0
-65 72 -25 -26 0
65 -72 -25 -26 0
-65 -72 -25 -26 0
-66 73 26 27 0
66 -73 26 27 0
66 73 -26 27 0
66 73 26 -27 0
-66 -73 -26 27 0
-66 -73 26 -27 0
-66 73 -26 -27 0
66 -73 -26 -27 0
-66 -73 -26 -27 0
-67 74 27 28 0
67 -74 27 28 0
67 74 -27 28 0
67 74 27 -28 0
-67 -74 -27 28 0
-67 -74 27 -28 0
-67 74 -27 -28 0
67 -74 -27 -28 0
-67 -74 -27 -28 0
-68 75 28 29 0
68 -75 28 29 0
68 75 -28 29 0
68 75 28 -29 0
-68 -75 -28 29 0
-68 -75 28 -29 0
-68 75 -28 -29 0
68 -75 -28 -29 0
-68 -75 -28 -29 0
-69 76 29 30 0
69 -76 29 30 0
69 76 -29 30 0
69 76 29 -30 0
-69 -76 -29 30 0
-69 -76 29 -30 0
-69 76 -29 -30 0
69 -76 -29 -30 0
-69 -76 -29 -30 0
-70 77 30 0
70 -77 30 0
70 77 -30 0
-70 -77 -30 0
-71 78 31 0
71 -78 31 0
71 78 -31 0
-71 -78 -31 0
-72 79 31 32 0
72 -79 31 32 0
72 79 -31 32 0
72 79 31 -32 0
-72 -79 -31 32 0
-72 -79 31 -32 0
-72 79 -31 -32 0
72 -79 -31 -32 0
-72 -79 -31 -32 0
-73 80 32 33 0
73 -80 32 33 0
73 80 -32 33 0
73 80 32 -33 0
-73 -80 -32 33 0
-73 -80 32 -33 0
-73 80 -32 -33 0
73 -80 -32 -33 0
-73 -80 -32 -33 0
-74 81 33 34 0
74 -81 33 34 0
74 81 -33 34 0
74 81 33 -34 0
-74 -81 -33 34 0
-74 -81 33 -34 0
-74 81 -33 -34 0
74 -81 -33 -34 0
-74 -81 -33 -34 0
-75 82 34 35 0
75 -82 34 35 0
75 82 -34 35 0
75 82 34 -35 0
-75 -82 -34 35 0
-75 -82 34 -35 0
-75 82 -34 -35 0
75 -82 -34 -35 0
-75 -82 -34 -35 0
-76 83 35 36 0
76 -83 35 36 0
76 83 -35 36 0
76 83 35 -36 0
-76 -83 -35 36 0
-76 -83 35 -36 0
-76 83 -35 -36 0
76 -83 -35 -36 0
-76 -83 -35 -36 0
-77 84 36 0
77 -84 36 0
77 84 -36 0
-77 -84 -36 0
-78 37 0
78 -37 0
-79 37 38 0
79 -37 38 0
79 37 -38 0
-79 -37 -38 0
-80 38 39 0
80 -38 39 0
80 38 -39 0
-80 -38 -39 0
-81 39 40 0
81 -39 40 0
81 39 -40 0
-81 -39 -40 0
-82 40 41 0
82 -40 41 0
82 40 -41 0
-82 -40 -41 0
-83 41 42 0
83 -41 42 0
83 41 -42 0
-83 -41 -42 0
-84 42 0
84 -42 0
1 2 3 4 5 6 7 8 9 10 11 12 13 14 15 16 17 18 19 20 21 22 23 24 25 26 27 28 29 30 31 32 33 34 35 36 37 38 39 40 41 42 43 44 45 46 47 48 49 50 51 52 53 54 55 56 57 58 59 60 61 62 63 64 65 66 67 68 69 70 71 72 73 74 75 76 77 78 79 80 81 82 83 84 0
