c Instancia Slitherlink 3x3
p cnf 24 98
1 4 0
1 13 0
1 14 0
4 13 0
4 14 0
13 14 0
-1 -4 -13 -14 0
5 8 18 0
5 8 19 0
5 18 19 0
8 18 19 0
-5 -8 -18 0
-5 -8 -19 0
-5 -18 -19 0
-8 -18 -19 0
9 12 0
9 23 0
9 24 0
12 23 0
12 24 0
23 24 0
-9 -12 -23 -24 0
-13 1 0
13 -1 0
-14 1 2 0
14 -1 2 0
14 1 -2 0
-14 -1 -2 0
-15 2 3 0
15 -2 3 0
15 2 -3 0
-15 -2 -3 0
-16 3 0
16 -3 0
-13 17 4 0
13 -17 4 0
13 17 -4 0
-13 -17 -4 0
-14 18 4 5 0
14 -18 4 5 0
14 18 -4 5 0
14 18 4 -5 0
-14 -18 -4 5 0
-14 -18 4 -5 0
-14 18 -4 -5 0
14 -18 -4 -5 0
-14 -18 -4 -5 0
-15 19 5 6 0
15 -19 5 6 0
15 19 -5 6 0
15 19 5 -6 0
-15 -19 -5 6 0
-15 -19 5 -6 0
-15 19 -5 -6 0
15 -19 -5 -6 0
-15 -19 -5 -6 0
-16 20 6 0
16 -20 6 0
16 20 -6 0
-16 -20 -6 0
-17 21 7 0
17 -21 7 0
17 21 -7 0
-17 -21 -7 0
-18 22 7 8 0
18 -22 7 8 0
18 22 -7 8 0
18 22 7 -8 0
-18 -22 -7 8 0
-18 -22 7 -8 0
-18 22 -7 -8 0
18 -22 -7 -8 0
-18 -22 -7 -8 0
-19 23 8 9 0
19 -23 8 9 0
19 23 -8 9 0
19 23 8 -9 0
-19 -23 -8 9 0
-19 -23 8 -9 0
-19 23 -8 -9 0
19 -23 -8 -9 0
-19 -23 -8 -9 0
-20 24 9 0
20 -24 9 0
20 24 -9 0
-20 -24 -9 0
-21 10 0
21 -10 0
-22 10 11 0
22 -10 11 0
22 10 -11 0
-22 -10 -11 0
-23 11 12 0
23 -11 12 0
23 11 -12 0
-23 -11 -12 0
-24 12 0
24 -12 0
