c Instancia Slitherlink 5x5
p cnf 60 304
2 7 0
2 32 0
2 33 0
7 32 0
7 33 0
32 33 0
-2 -7 -32 -33 0
4 9 0
4 34 0
4 35 0
9 34 0
9 35 0
34 35 0
-4 -9 -34 -35 0
6 11 0
6 37 0
6 38 0
11 37 0
11 38 0
37 38 0
-6 -11 -37 -38 0
8 13 39 0
8 13 40 0
8 39 40 0
13 39 40 0
-8 -13 -39 0
-8 -13 -40 0
-8 -39 -40 0
-13 -39 -40 0
10 15 0
10 41 0
10 42 0
15 41 0
15 42 0
41 42 0
-10 -15 -41 -42 0
12 17 44 0
12 17 45 0
12 44 45 0
17 44 45 0
-12 -17 -44 0
-12 -17 -45 0
-12 -44 -45 0
-17 -44 -45 0
14 19 46 0
14 19 47 0
14 46 47 0
19 46 47 0
-14 -19 -46 0
-14 -19 -47 0
-14 -46 -47 0
-19 -46 -47 0
16 21 0
16 49 0
16 50 0
21 49 0
21 50 0
49 50 0
-16 -21 -49 -50 0
18 23 51 0
18 23 52 0
18 51 52 0
23 51 52 0
-18 -23 -51 0
-18 -23 -52 0
-18 -51 -52 0
-23 -51 -52 0
20 25 0
20 53 0
20 54 0
25 53 0
25 54 0
53 54 0
-20 -25 -53 -54 0
22 27 0
22 56 0
22 57 0
27 56 0
27 57 0
56 57 0
-22 -27 -56 -57 0
24 29 0
24 58 0
24 59 0
29 58 0
29 59 0
58 59 0
-24 -29 -58 -59 0
-31 1 0
31 -1 0
-32 1 2 0
32 -1 2 0
32 1 -2 0
-32 -1 -2 0
-33 2 3 0
33 -2 3 0
33 2 -3 0
-33 -2 -3 0
-34 3 4 0
34 -3 4 0
34 3 -4 0
-34 -3 -4 0
-35 4 5 0
35 -4 5 0
35 4 -5 0
-35 -4 -5 0
-36 5 0
36 -5 0
-31 37 6 0
31 -37 6 0
31 37 -6 0
-31 -37 -6 0
-32 38 6 7 0
32 -38 6 7 0
32 38 -6 7 0
32 38 6 -7 0
-32 -38 -6 7 0
-32 -38 6 -7 0
-32 38 -6 -7 0
32 -38 -6 -7 0
-32 -38 -6 -7 0
-33 39 7 8 0
33 -39 7 8 0
33 39 -7 8 0
33 39 7 -8 0
-33 -39 -7 8 0
-33 -39 7 -8 0
-33 39 -7 -8 0
33 -39 -7 -8 0
-33 -39 -7 -8 0
-34 40 8 9 0
34 -40 8 9 0
34 40 -8 9 0
34 40 8 -9 0
-34 -40 -8 9 0
-34 -40 8 -9 0
-34 40 -8 -9 0
34 -40 -8 -9 0
-34 -40 -8 -9 0
-35 41 9 10 0
35 -41 9 10 0
35 41 -9 10 0
35 41 9 -10 0
-35 -41 -9 10 0
-35 -41 9 -10 0
-35 41 -9 -10 0
35 -41 -9 -10 0
-35 -41 -9 -10 0
-36 42 10 0
36 -42 10 0
36 42 -10 0
-36 -42 -10 0
-37 43 11 0
37 -43 11 0
37 43 -11 0
-37 -43 -11 0
-38 44 11 12 0
38 -44 11 12 0
38 44 -11 12 0
38 44 11 -12 0
-38 -44 -11 12 0
-38 -44 11 -12 0
-38 44 -11 -12 0
38 -44 -11 -12 0
-38 -44 -11 -12 0
-39 45 12 13 0
39 -45 12 13 0
39 45 -12 13 0
39 45 12 -13 0
-39 -45 -12 13 0
-39 -45 12 -13 0
-39 45 -12 -13 0
39 -45 -12 -13 0
-39 -45 -12 -13 0
-40 46 13 14 0
40 -46 13 14 0
40 46 -13 14 0
40 46 13 -14 0
-40 -46 -13 14 0
-40 -46 13 -14 0
-40 46 -13 -14 0
40 -46 -13 -14 0
-40 -46 -13 -14 0
-41 47 14 15 0
41 -47 14 15 0
41 47 -14 15 0
41 47 14 -15 0
-41 -47 -14 15 0
-41 -47 14 -15 0
-41 47 -14 -15 0
41 -47 -14 -15 0
-41 -47 -14 -15 0
-42 48 15 0
42 -48 15 0
42 48 -15 0
-42 -48 -15 0
-43 49 16 0
43 -49 16 0
43 49 -16 0
-43 -49 -16 0
-44 50 16 17 0
44 -50 16 17 0
44 50 -16 17 0
44 50 16 -17 0
-44 -50 -16 17 0
-44 -50 16 -17 0
-44 50 -16 -17 0
44 -50 -16 -17 0
-44 -50 -16 -17 0
-45 51 17 18 0
45 -51 17 18 0
45 51 -17 18 0
45 51 17 -18 0
-45 -51 -17 18 0
-45 -51 17 -18 0
-45 51 -17 -18 0
45 -51 -17 -18 0
-45 -51 -17 -18 0
-46 52 18 19 0
46 -52 18 19 0
46 52 -18 19 0
46 52 18 -19 0
-46 -52 -18 19 0
-46 -52 18 -19 0
-46 52 -18 -19 0
46 -52 -18 -19 0
-46 -52 -18 -19 0
-47 53 19 20 0
47 -53 19 20 0
47 53 -19 20 0
47 53 19 -20 0
-47 -53 -19 20 0
-47 -53 19 -20 0
-47 53 -19 -20 0
47 -53 -19 -20 0
-47 -53 -19 -20 0
-48 54 20 0
48 -54 20 0
48 54 -20 0
-48 -54 -20 0
-49 55 21 0
49 -55 21 0
49 55 -21 0
-49 -55 -21 0
-50 56 21 22 0
50 -56 21 22 0
50 56 -21 22 0
50 56 21 -22 0
-50 -56 -21 22 0
-50 -56 21 -22 0
-50 56 -21 -22 0
50 -56 -21 -22 0
-50 -56 -21 -22 0
-51 57 22 23 0
51 -57 22 23 0
51 57 -22 23 0
51 57 22 -23 0
-51 -57 -22 23 0
-51 -57 22 -23 0
-51 57 -22 -23 0
51 -57 -22 -23 0
-51 -57 -22 -23 0
-52 58 23 24 0
52 -58 23 24 0
52 58 -23 24 0
52 58 23 -24 0
-52 -58 -23 24 0
-52 -58 23 -24 0
-52 58 -23 -24 0
52 -58 -23 -24 0
-52 -58 -23 -24 0
-53 59 24 25 0
53 -59 24 25 0
53 59 -24 25 0
53 59 24 -25 0
-53 -59 -24 25 0
-53 -59 24 -25 0
-53 59 -24 -25 0
53 -59 -24 -25 0
-53 -59 -24 -25 0
-54 60 25 0
54 -60 25 0
54 60 -25 0
-54 -60 -25 0
-55 26 0
55 -26 0
-56 26 27 0
56 -26 27 0
56 26 -27 0
-56 -26 -27 0
-57 27 28 0
57 -27 28 0
57 27 -28 0
-57 -27 -28 0
-58 28 29 0
58 -28 29 0
58 28 -29 0
-58 -28 -29 0
-59 29 30 0
59 -29 30 0
59 29 -30 0
-59 -29 -30 0
-60 30 0
60 -30 0
