c Instancia Slitherlink 4x4
p cnf 40 186
1 5 0
1 21 0
1 22 0
5 21 0
5 22 0
21 22 0
-1 -5 -21 -22 0
2 6 0
2 22 0
2 23 0
6 22 0
6 23 0
22 23 0
-2 -6 -22 -23 0
-3 0
-7 0
-23 0
-24 0
4 8 0
4 24 0
4 25 0
8 24 0
8 25 0
24 25 0
-4 -8 -24 -25 0
8 12 29 0
8 12 30 0
8 29 30 0
12 29 30 0
-8 -12 -29 0
-8 -12 -30 0
-8 -29 -30 0
-12 -29 -30 0
-9 0
-13 0
-31 0
-32 0
13 0
17 0
36 0
37 0
15 19 0
15 38 0
15 39 0
19 38 0
19 39 0
38 39 0
-15 -19 -38 -39 0
-21 1 0
21 -1 0
-22 1 2 0
22 -1 2 0
22 1 -2 0
-22 -1 -2 0
-23 2 3 0
23 -2 3 0
23 2 -3 0
-23 -2 -3 0
-24 3 4 0
24 -3 4 0
24 3 -4 0
-24 -3 -4 0
-25 4 0
25 -4 0
-21 26 5 0
21 -26 5 0
21 26 -5 0
-21 -26 -5 0
-22 27 5 6 0
22 -27 5 6 0
22 27 -5 6 0
22 27 5 -6 0
-22 -27 -5 6 0
-22 -27 5 -6 0
-22 27 -5 -6 0
22 -27 -5 -6 0
-22 -27 -5 -6 0
-23 28 6 7 0
23 -28 6 7 0
23 28 -6 7 0
23 28 6 -7 0
-23 -28 -6 7 0
-23 -28 6 -7 0
-23 28 -6 -7 0
23 -28 -6 -7 0
-23 -28 -6 -7 0
-24 29 7 8 0
24 -29 7 8 0
24 29 -7 8 0
24 29 7 -8 0
-24 -29 -7 8 0
-24 -29 7 -8 0
-24 29 -7 -8 0
24 -29 -7 -8 0
-24 -29 -7 -8 0
-25 30 8 0
25 -30 8 0
25 30 -8 0
-25 -30 -8 0
-26 31 9 0
26 -31 9 0
26 31 -9 0
-26 -31 -9 0
-27 32 9 10 0
27 -32 9 10 0
27 32 -9 10 0
27 32 9 -10 0
-27 -32 -9 10 0
-27 -32 9 -10 0
-27 32 -9 -10 0
27 -32 -9 -10 0
-27 -32 -9 -10 0
-28 33 10 11 0
28 -33 10 11 0
28 33 -10 11 0
28 33 10 -11 0
-28 -33 -10 11 0
-28 -33 10 -11 0
-28 33 -10 -11 0
28 -33 -10 -11 0
-28 -33 -10 -11 0
-29 34 11 12 0
29 -34 11 12 0
29 34 -11 12 0
29 34 11 -12 0
-29 -34 -11 12 0
-29 -34 11 -12 0
-29 34 -11 -12 0
29 -34 -11 -12 0
-29 -34 -11 -12 0
-30 35 12 0
30 -35 12 0
30 35 -12 0
-30 -35 -12 0
-31 36 13 0
31 -36 13 0
31 36 -13 0
-31 -36 -13 0
-32 37 13 14 0
32 -37 13 14 0
32 37 -13 14 0
32 37 13 -14 0
-32 -37 -13 14 0
-32 -37 13 -14 0
-32 37 -13 -14 0
32 -37 -13 -14 0
-32 -37 -13 -14 0
-33 38 14 15 0
33 -38 14 15 0
33 38 -14 15 0
33 38 14 -15 0
-33 -38 -14 15 0
-33 -38 14 -15 0
-33 38 -14 -15 0
33 -38 -14 -15 0
-33 -38 -14 -15 0
-34 39 15 16 0
34 -39 15 16 0
34 39 -15 16 0
34 39 15 -16 0
-34 -39 -15 16 0
-34 -39 15 -16 0
-34 39 -15 -16 0
34 -39 -15 -16 0
-34 -39 -15 -16 0
-35 40 16 0
35 -40 16 0
35 40 -16 0
-35 -40 -16 0
-36 17 0
36 -17 0
-37 17 18 0
37 -17 18 0
37 17 -18 0
-37 -17 -18 0
-38 18 19 0
38 -18 19 0
38 18 -19 0
-38 -18 -19 0
-39 19 20 0
39 -19 20 0
39 19 -20 0
-39 -19 -20 0
-40 20 0
40 -20 0
1 2 3 4 5 6 7 8 9 10 11 12 13 14 15 16 17 18 19 20 21 22 23 24 25 26 27 28 29 30 31 32 33 34 35 36 37 38 39 40 0
