c Instancia Slitherlink 5x5
p cnf 60 266
1 6 0
1 31 0
1 32 0
6 31 0
6 32 0
31 32 0
-1 -6 -31 -32 0
6 11 0
6 37 0
6 38 0
11 37 0
11 38 0
37 38 0
-6 -11 -37 -38 0
-11 0
-16 0
-43 0
-44 0
16 21 0
16 49 0
16 50 0
21 49 0
21 50 0
49 50 0
-16 -21 -49 -50 0
17 22 50 0
17 22 51 0
17 50 51 0
22 50 51 0
-17 -22 -50 0
-17 -22 -51 0
-17 -50 -51 0
-22 -50 -51 0
-21 0
-26 0
-55 0
-56 0
23 28 57 0
23 28 58 0
23 57 58 0
28 57 58 0
-23 -28 -57 0
-23 -28 -58 0
-23 -57 -58 0
-28 -57 -58 0
25 0
30 0
59 0
60 0
-31 1 0
31 -1 0
-32 1 2 0
32 -1 2 0
32 1 -2 0
-32 -1 -2 0
-33 2 3 0
33 -2 3 0
33 2 -3 0
-33 -2 -3 0
-34 3 4 0
34 -3 4 0
34 3 -4 0
-34 -3 -4 0
-35 4 5 0
35 -4 5 0
35 4 -5 0
-35 -4 -5 0
-36 5 0
36 -5 0
-31 37 6 0
31 -37 6 0
31 37 -6 0
-31 -37 -6 0
-32 38 6 7 0
32 -38 6 7 0
32 38 -6 7 0
32 38 6 -7 0
-32 -38 -6 7 0
-32 -38 6 -7 0
-32 38 -6 -7 0
32 -38 -6 -7 0
-32 -38 -6 -7 0
-33 39 7 8 0
33 -39 7 8 0
33 39 -7 8 0
33 39 7 -8 0
-33 -39 -7 8 0
-33 -39 7 -8 0
-33 39 -7 -8 0
33 -39 -7 -8 0
-33 -39 -7 -8 0
-34 40 8 9 0
34 -40 8 9 0
34 40 -8 9 0
34 40 8 -9 0
-34 -40 -8 9 0
-34 -40 8 -9 0
-34 40 -8 -9 0
34 -40 -8 -9 0
-34 -40 -8 -9 0
-35 41 9 10 0
35 -41 9 10 0
35 41 -9 10 0
35 41 9 -10 0
-35 -41 -9 10 0
-35 -41 9 -10 0
-35 41 -9 -10 0
35 -41 -9 -10 0
-35 -41 -9 -10 0
-36 42 10 0
36 -42 10 0
36 42 -10 0
-36 -42 -10 0
-37 43 11 0
37 -43 11 0
37 43 -11 0
-37 -43 -11 0
-38 44 11 12 0
38 -44 11 12 0
38 44 -11 12 0
38 44 11 -12 0
-38 -44 -11 12 0
-38 -44 11 -12 0
-38 44 -11 -12 0
38 -44 -11 -12 0
-38 -44 -11 -12 0
-39 45 12 13 0
39 -45 12 13 0
39 45 -12 13 0
39 45 12 -13 0
-39 -45 -12 13 0
-39 -45 12 -13 0
-39 45 -12 -13 0
39 -45 -12 -13 0
-39 -45 -12 -13 0
-40 46 13 14 0
40 -46 13 14 0
40 46 -13 14 0
40 46 13 -14 0
-40 -46 -13 14 0
-40 -46 13 -14 0
-40 46 -13 -14 0
40 -46 -13 -14 0
-40 -46 -13 -14 0
-41 47 14 15 0
41 -47 14 15 0
41 47 -14 15 0
41 47 14 -15 0
-41 -47 -14 15 0
-41 -47 14 -15 0
-41 47 -14 -15 0
41 -47 -14 -15 0
-41 -47 -14 -15 0
-42 48 15 0
42 -48 15 0
42 48 -15 0
-42 -48 -15 0
-43 49 16 0
43 -49 16 0
43 49 -16 0
-43 -49 -16 0
-44 50 16 17 0
44 -50 16 17 0
44 50 -16 17 0
44 50 16 -17 0
-44 -50 -16 17 0
-44 -50 16 -17 0
-44 50 -16 -17 0
44 -50 -16 -17 0
-44 -50 -16 -17 0
-45 51 17 18 0
45 -51 17 18 0
45 51 -17 18 0
45 51 17 -18 0
-45 -51 -17 18 0
-45 -51 17 -18 0
-45 51 -17 -18 0
45 -51 -17 -18 0
-45 -51 -17 -18 0
-46 52 18 19 0
46 -52 18 19 0
46 52 -18 19 0
46 52 18 -19 0
-46 -52 -18 19 0
-46 -52 18 -19 0
-46 52 -18 -19 0
46 -52 -18 -19 0
-46 -52 -18 -19 0
-47 53 19 20 0
47 -53 19 20 0
47 53 -19 20 0
47 53 19 -20 0
-47 -53 -19 20 0
-47 -53 19 -20 0
-47 53 -19 -20 0
47 -53 -19 -20 0
-47 -53 -19 -20 0
-48 54 20 0
48 -54 20 0
48 54 -20 0
-48 -54 -20 0
-49 55 21 0
49 -55 21 0
49 55 -21 0
-49 -55 -21 0
-50 56 21 22 0
50 -56 21 22 0
50 56 -21 22 0
50 56 21 -22 0
-50 -56 -21 22 0
-50 -56 21 -22 0
-50 56 -21 -22 0
50 -56 -21 -22 0
-50 -56 -21 -22 0
-51 57 22 23 0
51 -57 22 23 0
51 57 -22 23 0
51 57 22 -23 0
-51 -57 -22 23 0
-51 -57 22 -23 0
-51 57 -22 -23 0
51 -57 -22 -23 0
-51 -57 -22 -23 0
-52 58 23 24 0
52 -58 23 24 0
52 58 -23 24 0
52 58 23 -24 0
-52 -58 -23 24 0
-52 -58 23 -24 0
-52 58 -23 -24 0
52 -58 -23 -24 0
-52 -58 -23 -24 0
-53 59 24 25 0
53 -59 24 25 0
53 59 -24 25 0
53 59 24 -25 0
-53 -59 -24 25 0
-53 -59 24 -25 0
-53 59 -24 -25 0
53 -59 -24 -25 0
-53 -59 -24 -25 0
-54 60 25 0
54 -60 25 0
54 60 -25 0
-54 -60 -25 0
-55 26 0
55 -26 0
-56 26 27 0
56 -26 27 0
56 26 -27 0
-56 -26 -27 0
-57 27 28 0
57 -27 28 0
57 27 -28 0
-57 -27 -28 0
-58 28 29 0
58 -28 29 0
58 28 -29 0
-58 -28 -29 0
-59 29 30 0
59 -29 30 0
59 29 -30 0
-59 -29 -30 0
-60 30 0
60 -30 0
1 2 3 4 5 6 7 8 9 10 11 12 13 14 15 16 17 18 19 20 21 22 23 24 25 26 27 28 29 30 31 32 33 34 35 36 37 38 39 40 41 42 43 44 45 46 47 48 49 50 51 52 53 54 55 56 57 58 59 60 0
